language Essence 1.3

letting blksize_delta be
        function(1 --> 3, 2 --> 3, 3 --> 3, 4 --> 3, 5 --> 3, 6 --> 3, 7 --> 3, 8 --> 3, 9 --> 3, 10 --> 3, 11 --> 3,
                 12 --> 3, 13 --> 3, 14 --> 3, 15 --> 3, 16 --> 3, 17 --> 3, 18 --> 3, 19 --> 3, 20 --> 3, 21 --> 3,
                 22 --> 3, 23 --> 3, 24 --> 3)
letting maxcars be
        function(1 --> 6, 2 --> 10, 3 --> 10, 4 --> 10, 5 --> 10, 6 --> 10, 7 --> 10, 8 --> 10, 9 --> 10, 10 --> 10,
                 11 --> 10, 12 --> 10, 13 --> 8, 14 --> 10, 15 --> 10, 16 --> 10, 17 --> 10, 18 --> 10, 19 --> 10,
                 20 --> 10, 21 --> 9, 22 --> 10, 23 --> 10, 24 --> 7)
letting n_cars be 146
letting n_classes be 2
letting n_options be 24
letting quantity be function(1 --> 73, 2 --> 73)
letting usage be
        relation((1, 1), (1, 3), (1, 4), (1, 5), (1, 6), (1, 7), (1, 8), (1, 9), (1, 10), (1, 11), (1, 12), (1, 13),
                 (1, 15), (1, 17), (1, 18), (1, 19), (1, 20), (1, 21), (1, 22), (1, 23), (2, 2), (2, 14), (2, 16),
                 (2, 24))
$ Visualisation for usage
$  1  1
$  1  3
$  1  4
$  1  5
$  1  6
$  1  7
$  1  8
$  1  9
$  1 10
$  1 11
$  1 12
$  1 13
$  1 15
$  1 17
$  1 18
$  1 19
$  1 20
$  1 21
$  1 22
$  1 23
$  2  2
$  2 14
$  2 16
$  2 24

